2 6 16 5 12 14 15 18 11 1 0 17 9 4 10 3 7 19 8 13  
2 6 16 5 12 14 15 18 11 1 0 17 9 4 10 3 7 19 8 13  
2 6 8 5 12 14 15 3 7 1 16 0 10 18 11 19 9 4 17 13  
2 6 16 5 12 14 15 18 11 1 0 17 9 10 4 8 7 19 3 13  
2 6 16 5 12 14 15 18 11 1 0 17 9 10 7 4 3 19 8 13  
2 6 8 5 12 16 14 15 3 7 1 19 10 18 0 11 9 4 17 13  
2 6 8 5 12 14 15 3 7 1 16 0 10 18 11 4 9 19 17 13  
2 6 16 5 12 14 15 18 11 1 0 17 9 10 7 4 3 19 8 13  
2 6 8 5 12 3 15 7 1 4 10 14 16 0 19 18 11 9 17 13  
2 6 16 5 12 14 15 18 11 1 0 17 9 10 4 8 7 19 3 13  
2 6 11 5 12 14 15 3 7 0 1 16 4 10 18 8 9 17 19 13  
2 6 8 5 12 15 3 19 7 1 10 4 16 18 14 13 9 17 0 11  
2 6 8 5 12 3 15 7 1 19 10 4 16 18 11 13 9 17 0 14  
2 6 8 5 12 3 15 7 1 16 4 10 18 14 11 9 19 0 17 13  
